
  32    4
  10   10   10   10

   0   0   0   0   0   1 2 
   3   0   1   1   1   1 3 
   8   1   0   5   4   1 4 
   9   5   1   0   4   1 5 
   6   4   0   3   1   2 31 6 
   8   3   4   0   4   1 7 
   1   3   0   2   5   2 30 8 
   1   3   0   2   5   1 9 
   9   8   5   4   0   1 10 
  10   0   5   3   4   1 11 
   3   0   6   3   5   1 12 
   7   5   1   3   0   1 13 
   3   3   0   5   3   1 14 
   5   3   4   1   0   2 29 15 
   4   4   6   0   5   1 16 
   5   0   3   5   4   1 17 
   4   3   6   0   4   1 18 
   7   4   3   0   4   1 19 
   9   0   4   6   3   1 20 
   3   4   2   3   0   1 21 
   1   2   0   5   4   1 22 
   5   3   0   3   2   1 23 
   8   3   7   0   3   1 24 
   7   2   4   4   0   1 25 
  10   0   6   4   5   1 26 
   2   6   0   3   3   1 27 
   7   7   0   8   3   1 28 
   3   7   5   0   7   1 32
   9   0   4   6   4   1 32
   1   5   4   0   7   1 32
   4   0   3   9   6   1 32
   0   0   0   0   0   0 
